unsat
(forall ((A (_ BitVec 1))
         (B (_ BitVec 1))
         (C (_ BitVec 8))
         (D (_ BitVec 1))
         (E (_ BitVec 512))
         (F (_ BitVec 1))
         (G (_ BitVec 1))
         (H (_ BitVec 1))
         (I (_ BitVec 287))
         (J (_ BitVec 1))
         (K (_ BitVec 1))
         (L (_ BitVec 1))
         (M (_ BitVec 1))
         (N (_ BitVec 1))
         (O (_ BitVec 279))
         (P (_ BitVec 1))
         (Q (_ BitVec 1))
         (R (_ BitVec 1))
         (S (_ BitVec 2))
         (T (_ BitVec 1))
         (U (_ BitVec 1))
         (V (_ BitVec 1))
         (W (_ BitVec 1))
         (X (_ BitVec 1))
         (Y (_ BitVec 1))
         (Z (_ BitVec 1))
         (A1 (_ BitVec 3))
         (B1 (_ BitVec 1))
         (C1 (_ BitVec 1))
         (D1 (_ BitVec 1))
         (E1 (_ BitVec 1))
         (F1 (_ BitVec 1))
         (G1 (_ BitVec 1))
         (H1 (_ BitVec 1))
         (I1 (_ BitVec 1))
         (J1 (_ BitVec 1))
         (K1 (_ BitVec 1))
         (L1 (_ BitVec 1))
         (M1 (_ BitVec 1))
         (N1 (_ BitVec 1))
         (O1 (_ BitVec 1))
         (P1 (_ BitVec 1))
         (Q1 (_ BitVec 1))
         (R1 (_ BitVec 1))
         (S1 (_ BitVec 1))
         (T1 (_ BitVec 1))
         (U1 (_ BitVec 1))
         (V1 (_ BitVec 1))
         (W1 (_ BitVec 1)))
  (! (= (INV!slice!1 A
                     B
                     C
                     D
                     E
                     F
                     G
                     H
                     I
                     J
                     K
                     L
                     M
                     N
                     O
                     P
                     Q
                     R
                     S
                     T
                     U
                     V
                     W
                     X
                     Y
                     Z
                     A1
                     B1
                     C1
                     D1
                     E1
                     F1
                     G1
                     H1
                     I1
                     J1
                     K1
                     L1
                     M1
                     N1
                     O1
                     P1
                     Q1
                     R1
                     S1
                     T1
                     U1
                     V1
                     W1)
        (and (or (= G #b0) (= C #x00)) (= H #b1)))
     :weight 0))
